1 1 -2 0
1 1 3 0
1 -1 4 0
1 -1 5 0
1 1 6 0
1 2 7 0
1 -2 8 0
1 2 -3 0
1 2 1 0
1 -2 4 0
1 2 6 0
1 9 10 0
1 -9 11 0
1 9 8 0
1 9 3 0
1 -9 -12 0
1 9 -13 0
1 -9 4 0
1 -9 -6 0
1 -11 10 0
1 11 -14 0
1 11 -8 0
1 -11 -3 0
1 -11 -12 0
1 11 -13 0
1 -11 -9 0
1 3 -15 0
1 -3 16 0
1 -3 -17 0
1 3 18 0
1 -3 19 0
1 -3 9 0
1 -3 -6 0
1 -6 20 0
1 6 -15 0
1 -6 -21 0
1 -6 16 0
1 -6 -11 0
1 -6 2 0
1 6 3 0
1 -6 22 0
1 -6 -18 0
1 -6 19 0
1 -6 9 0
1 -6 1 0
1 8 -15 0
1 8 -23 0
1 8 -24 0
1 8 -11 0
1 8 2 0
1 8 -25 0
1 -8 -22 0
1 -8 -26 0
1 8 -27 0
1 -8 -9 0
1 -8 1 0
1 8 4 0
1 -4 23 0
1 4 24 0
1 -4 11 0
1 4 2 0
1 -4 8 0
1 4 26 0
1 4 27 0
1 4 9 0
1 -4 1 0
1 -19 10 0
1 -19 -14 0
1 19 16 0
1 -19 3 0
1 19 13 0
1 -19 -6 0
1 -16 10 0
1 16 14 0
1 -16 24 0
1 16 -3 0
1 -16 12 0
1 -16 13 0
1 -16 -19 0
1 -16 -6 0
1 18 10 0
1 -18 14 0
1 18 21 0
1 18 28 0
1 18 -3 0
1 18 -12 0
1 18 -29 0
1 -18 26 0
1 -18 30 0
1 -18 6 0
1 21 -10 0
1 21 14 0
1 21 -31 0
1 21 23 0
1 -21 28 0
1 -21 -3 0
1 21 -12 0
1 -21 18 0
1 -21 -29 0
1 -21 -30 0
1 21 6 0
1 -13 32 0
1 -13 33 0
1 -13 -14 0
1 -13 -16 0
1 -13 -11 0
1 -13 -34 0
1 13 35 0
1 -13 -18 0
1 -13 19 0
1 -13 -36 0
1 -14 -32 0
1 14 33 0
1 14 -37 0
1 14 21 0
1 14 -16 0
1 -14 -34 0
1 14 -38 0
1 14 -35 0
1 14 -13 0
1 -14 18 0
1 14 19 0
1 14 9 0
1 14 -36 0
1 12 10 0
1 12 -15 0
1 -12 -21 0
1 12 16 0
1 -12 11 0
1 -12 34 0
1 12 -39 0
1 -12 40 0
1 -12 -18 0
1 -12 19 0
1 12 -9 0
1 -12 36 0
1 -10 41 0
1 10 -15 0
1 10 16 0
1 10 -34 0
1 -10 -12 0
1 -10 39 0
1 -10 -22 0
1 10 18 0
1 -10 19 0
1 10 -9 0
1 35 33 0
1 35 14 0
1 -35 -31 0
1 -35 13 0
1 35 -29 0
1 -35 30 0
1 -33 -31 0
1 -33 28 0
1 -33 35 0
1 -33 13 0
1 -33 29 0
1 -33 30 0
1 -38 32 0
1 38 -14 0
1 38 31 0
1 38 -28 0
1 38 39 0
1 -38 13 0
1 32 14 0
1 -32 -31 0
1 32 -28 0
1 -32 38 0
1 -32 13 0
1 32 30 0
1 -30 32 0
1 30 33 0
1 -30 21 0
1 -30 -28 0
1 -30 -42 0
1 -30 35 0
1 30 18 0
1 -30 43 0
1 30 44 0
1 28 -32 0
1 -28 -33 0
1 -28 21 0
1 -28 45 0
1 28 42 0
1 -28 38 0
1 28 35 0
1 28 -18 0
1 28 30 0
1 28 -44 0
1 29 32 0
1 -29 -33 0
1 -29 -21 0
1 29 -46 0
1 -29 -34 0
1 29 -38 0
1 29 35 0
1 -29 -18 0
1 -29 44 0
1 -29 -47 0
1 29 36 0
1 -31 32 0
1 31 33 0
1 -31 21 0
1 31 48 0
1 31 -42 0
1 31 -34 0
1 31 38 0
1 -31 35 0
1 -31 18 0
1 -31 -29 0
1 31 -44 0
1 -31 36 0
1 5 49 0
1 5 -50 0
1 5 -7 0
1 -5 51 0
1 -5 -1 0
1 -7 49 0
1 7 2 0
1 7 52 0
1 -7 53 0
1 7 5 0
1 -54 -49 0
1 -54 -50 0
1 -54 55 0
1 -54 -56 0
1 54 -57 0
1 54 53 0
1 -54 51 0
1 -54 58 0
1 -54 59 0
1 -54 60 0
1 -57 49 0
1 -57 -50 0
1 57 -56 0
1 57 -61 0
1 -57 -53 0
1 57 51 0
1 -57 58 0
1 57 -54 0
1 -50 62 0
1 50 23 0
1 50 63 0
1 50 24 0
1 -50 57 0
1 -50 51 0
1 50 64 0
1 50 26 0
1 -50 -27 0
1 -50 54 0
1 -50 -5 0
1 -51 50 0
1 -51 62 0
1 51 23 0
1 51 57 0
1 -51 7 0
1 51 65 0
1 51 64 0
1 -51 26 0
1 -51 27 0
1 51 54 0
1 51 5 0
1 -49 66 0
1 -49 62 0
1 -49 67 0
1 -49 -57 0
1 -49 7 0
1 49 53 0
1 49 68 0
1 49 69 0
1 -49 54 0
1 49 -5 0
1 -53 62 0
1 53 67 0
1 53 70 0
1 -53 57 0
1 53 -7 0
1 53 71 0
1 -53 -64 0
1 53 -68 0
1 -53 69 0
1 53 -54 0
1 53 5 0
1 -27 -50 0
1 27 -55 0
1 -27 -24 0
1 -27 56 0
1 27 -8 0
1 -27 -51 0
1 -27 -58 0
1 -27 59 0
1 27 19 0
1 27 69 0
1 27 4 0
1 -24 -50 0
1 -24 55 0
1 24 16 0
1 -24 56 0
1 24 -70 0
1 24 -8 0
1 24 51 0
1 24 59 0
1 24 -27 0
1 -26 -50 0
1 -26 -23 0
1 -26 55 0
1 -26 -56 0
1 -26 72 0
1 -26 -73 0
1 26 8 0
1 26 58 0
1 -26 -18 0
1 -26 59 0
1 26 -74 0
1 26 -4 0
1 -23 50 0
1 23 -21 0
1 23 -56 0
1 -23 -72 0
1 23 -8 0
1 -23 -51 0
1 -23 -58 0
1 -23 -26 0
1 -23 75 0
1 23 74 0
1 23 -4 0
1 -56 -41 0
1 -56 15 0
1 56 23 0
1 56 76 0
1 56 57 0
1 56 77 0
1 -56 -22 0
1 56 -26 0
1 -56 27 0
1 -56 54 0
1 59 -78 0
1 59 41 0
1 59 15 0
1 -59 56 0
1 -59 57 0
1 -59 -77 0
1 59 -39 0
1 59 26 0
1 59 -79 0
1 59 -27 0
1 59 54 0
1 55 78 0
1 -55 80 0
1 55 -62 0
1 55 -23 0
1 -55 81 0
1 55 -24 0
1 -55 77 0
1 55 -58 0
1 55 -64 0
1 -55 -26 0
1 -55 27 0
1 -55 -54 0
1 -58 -78 0
1 -58 80 0
1 58 62 0
1 -58 -23 0
1 58 -55 0
1 -58 24 0
1 58 57 0
1 58 77 0
1 58 -82 0
1 -58 -64 0
1 58 -26 0
1 58 83 0
1 -58 -27 0
1 22 10 0
1 -22 15 0
1 22 -72 0
1 22 -73 0
1 22 -8 0
1 22 3 0
1 22 -12 0
1 -22 -35 0
1 -22 -59 0
1 22 -75 0
1 22 74 0
1 -22 4 0
1 22 6 0
1 -15 10 0
1 -15 -33 0
1 -15 56 0
1 15 -72 0
1 15 73 0
1 -15 -8 0
1 15 -12 0
1 15 22 0
1 -15 -59 0
1 -15 -74 0
1 15 4 0
1 15 -6 0
1 39 20 0
1 39 -72 0
1 -39 -73 0
1 39 25 0
1 39 82 0
1 -39 59 0
1 41 20 0
1 -41 -32 0
1 41 10 0
1 41 -80 0
1 -41 56 0
1 -41 -72 0
1 -41 -73 0
1 41 25 0
1 -41 -17 0
1 41 39 0
1 -41 -59 0
1 41 -74 0
1 -41 84 0
1 -73 41 0
1 73 -15 0
1 -73 -23 0
1 -73 85 0
1 73 46 0
1 -73 86 0
1 -73 34 0
1 73 -39 0
1 -73 -22 0
1 -73 26 0
1 -73 -74 0
1 73 87 0
1 73 -47 0
1 -74 -41 0
1 74 -73 0
1 74 -85 0
1 74 46 0
1 -74 34 0
1 74 22 0
1 74 26 0
1 -72 -78 0
1 72 41 0
1 72 15 0
1 -72 23 0
1 -72 85 0
1 -72 -88 0
1 72 -77 0
1 72 39 0
1 -72 22 0
1 -72 -26 0
1 -72 -87 0
1 72 -89 0
1 -75 -78 0
1 -75 -41 0
1 -75 -15 0
1 -75 72 0
1 75 -77 0
1 75 39 0
1 75 22 0
1 75 -26 0
1 -75 -90 0
1 -75 89 0
1 34 20 0
1 -34 10 0
1 34 -14 0
1 34 31 0
1 -34 -73 0
1 -34 25 0
1 -34 77 0
1 -34 -12 0
1 -34 17 0
1 34 13 0
1 34 29 0
1 -34 -74 0
1 34 -84 0
1 34 36 0
1 36 78 0
1 -36 10 0
1 -36 -14 0
1 36 -31 0
1 -36 -25 0
1 -36 -34 0
1 36 -17 0
1 -36 12 0
1 36 -13 0
1 -36 -74 0
1 -36 -84 0
1 -46 20 0
1 -46 -91 0
1 -46 37 0
1 46 -31 0
1 46 73 0
1 -46 -88 0
1 -46 25 0
1 -46 92 0
1 46 -29 0
1 -46 74 0
1 -46 -47 0
1 46 84 0
1 47 -20 0
1 47 91 0
1 47 -37 0
1 47 -46 0
1 47 25 0
1 -47 17 0
1 47 -40 0
1 -47 -29 0
1 -47 84 0
1 47 74 0
1 -47 -89 0
1 -17 20 0
1 -17 -41 0
1 -17 -93 0
1 -17 94 0
1 -17 42 0
1 -17 -34 0
1 -17 -3 0
1 17 -95 0
1 17 -39 0
1 17 96 0
1 17 -44 0
1 17 47 0
1 17 36 0
1 20 -97 0
1 -20 -41 0
1 -20 -93 0
1 -20 94 0
1 -20 42 0
1 -20 46 0
1 20 -34 0
1 -20 39 0
1 -20 -98 0
1 20 96 0
1 20 44 0
1 20 47 0
1 -25 -41 0
1 25 99 0
1 25 85 0
1 25 -8 0
1 25 -34 0
1 -25 -100 0
1 25 39 0
1 -25 98 0
1 25 -87 0
1 -25 -47 0
1 25 84 0
1 -25 -36 0
1 84 93 0
1 84 -99 0
1 84 85 0
1 -84 46 0
1 -84 25 0
1 84 34 0
1 84 101 0
1 84 -87 0
1 -84 -47 0
1 -84 -102 0
1 -84 -36 0
1 42 20 0
1 -42 -91 0
1 -42 -31 0
1 -42 -37 0
1 42 -28 0
1 42 -85 0
1 -42 17 0
1 -42 40 0
1 -42 29 0
1 -42 30 0
1 -42 44 0
1 -44 -20 0
1 44 91 0
1 -44 -37 0
1 -44 -31 0
1 -44 28 0
1 -44 42 0
1 44 -17 0
1 -44 40 0
1 44 -92 0
1 -44 -29 0
1 44 30 0
1 44 -87 0
1 -94 20 0
1 -94 91 0
1 94 -48 0
1 94 -99 0
1 94 17 0
1 94 40 0
1 -94 -92 0
1 -94 103 0
1 94 43 0
1 96 -20 0
1 96 91 0
1 -96 -48 0
1 -96 -45 0
1 -96 -17 0
1 -96 40 0
1 -96 -92 0
1 96 103 0
1 96 43 0
1 96 -101 0
1 -92 -104 0
1 92 -37 0
1 92 105 0
1 92 94 0
1 -92 42 0
1 92 -46 0
1 -92 106 0
1 -92 107 0
1 -92 -108 0
1 92 44 0
1 92 47 0
1 -37 14 0
1 37 104 0
1 -37 -109 0
1 37 -105 0
1 37 -94 0
1 37 42 0
1 37 -46 0
1 37 106 0
1 -37 -92 0
1 -37 108 0
1 -37 96 0
1 -37 -44 0
1 -37 47 0
1 40 -104 0
1 -40 -110 0
1 -40 -93 0
1 -40 94 0
1 -40 -42 0
1 -40 106 0
1 -40 111 0
1 40 -112 0
1 40 -98 0
1 -40 -96 0
1 -40 47 0
1 -91 -10 0
1 91 -113 0
1 -91 104 0
1 -91 93 0
1 91 -42 0
1 91 46 0
1 -91 -40 0
1 -91 -112 0
1 91 98 0
1 91 96 0
1 91 -44 0
1 -105 48 0
1 105 45 0
1 -105 -103 0
1 105 -92 0
1 -105 108 0
1 -105 -43 0
1 108 -37 0
1 -108 105 0
1 108 -92 0
1 108 103 0
1 -108 -98 0
1 108 43 0
1 114 -37 0
1 -114 -48 0
1 -114 -110 0
1 -114 -45 0
1 114 107 0
1 114 -92 0
1 114 43 0
1 -107 37 0
1 -107 114 0
1 -107 48 0
1 -107 45 0
1 -107 -92 0
1 107 103 0
1 -107 -43 0
1 -43 115 0
1 -43 105 0
1 43 116 0
1 -43 108 0
1 43 30 0
1 -45 -115 0
1 45 114 0
1 45 28 0
1 45 -105 0
1 -45 -107 0
1 -45 108 0
1 -45 -43 0
1 103 -115 0
1 103 -114 0
1 103 48 0
1 103 -105 0
1 103 94 0
1 -103 -116 0
1 103 117 0
1 -103 -106 0
1 103 -29 0
1 103 -108 0
1 103 -118 0
1 -103 96 0
1 -48 -115 0
1 48 119 0
1 -48 104 0
1 48 -31 0
1 48 -114 0
1 -48 -120 0
1 -48 94 0
1 48 -116 0
1 -48 117 0
1 -48 -106 0
1 -48 107 0
1 -48 -108 0
1 48 96 0
1 121 122 0
1 121 123 0
1 -121 -52 0
1 -121 -124 0
1 -121 125 0
1 121 5 0
1 52 -122 0
1 -52 123 0
1 52 -7 0
1 52 125 0
1 52 -121 0
1 60 122 0
1 60 -61 0
1 60 126 0
1 60 124 0
1 -60 125 0
1 -60 127 0
1 60 -54 0
1 60 -128 0
1 -61 -123 0
1 -61 -129 0
1 -61 -57 0
1 61 124 0
1 -61 -128 0
1 125 -67 0
1 125 -123 0
1 -125 70 0
1 125 -61 0
1 125 52 0
1 125 -68 0
1 -125 -130 0
1 125 -60 0
1 -125 121 0
1 123 -67 0
1 -123 131 0
1 123 70 0
1 -123 52 0
1 123 68 0
1 123 -69 0
1 123 -121 0
1 -124 -132 0
1 124 -52 0
1 124 -60 0
1 124 -121 0
1 122 -61 0
1 -122 -52 0
1 -122 -124 0
1 122 -60 0
1 122 -121 0
1 69 49 0
1 -69 -70 0
1 69 129 0
1 69 -126 0
1 -69 -53 0
1 69 -127 0
1 -69 -128 0
1 -70 -49 0
1 70 -123 0
1 -70 129 0
1 70 -127 0
1 70 -53 0
1 70 -125 0
1 70 -69 0
1 70 128 0
1 68 -133 0
1 68 49 0
1 68 -67 0
1 -68 -123 0
1 68 -129 0
1 -68 134 0
1 -68 -135 0
1 68 53 0
1 68 -26 0
1 -68 125 0
1 -68 127 0
1 68 128 0
1 -68 -136 0
1 -67 133 0
1 -67 49 0
1 -67 -125 0
1 67 123 0
1 67 126 0
1 67 134 0
1 67 -135 0
1 -67 -53 0
1 -67 -68 0
1 67 127 0
1 -67 128 0
1 -67 136 0
1 -128 137 0
1 128 -62 0
1 -128 -67 0
1 -128 70 0
1 128 -61 0
1 128 -126 0
1 128 -138 0
1 128 -82 0
1 -128 68 0
1 128 60 0
1 -126 -137 0
1 -126 80 0
1 -126 62 0
1 126 67 0
1 126 70 0
1 126 61 0
1 -126 -139 0
1 126 -138 0
1 -126 82 0
1 126 128 0
1 126 68 0
1 126 -69 0
1 -126 60 0
1 127 -137 0
1 127 67 0
1 127 -70 0
1 -127 129 0
1 -127 61 0
1 -127 -68 0
1 -127 -69 0
1 -127 -140 0
1 127 60 0
1 129 -67 0
1 129 141 0
1 -129 -61 0
1 -129 -127 0
1 129 -138 0
1 -129 69 0
1 129 60 0
1 64 -133 0
1 -64 49 0
1 64 -50 0
1 -64 -62 0
1 64 -55 0
1 -64 126 0
1 64 -134 0
1 -64 -135 0
1 64 53 0
1 -64 -58 0
1 -64 -128 0
1 -64 136 0
1 -62 49 0
1 -62 -15 0
1 62 50 0
1 62 -126 0
1 62 134 0
1 -62 -53 0
1 -62 51 0
1 62 58 0
1 62 -128 0
1 82 133 0
1 82 66 0
1 82 55 0
1 -82 126 0
1 82 134 0
1 -82 -135 0
1 82 -39 0
1 -82 65 0
1 82 58 0
1 82 -128 0
1 82 -136 0
1 -80 -133 0
1 80 -41 0
1 80 -66 0
1 80 55 0
1 80 134 0
1 80 -71 0
1 80 -58 0
1 80 65 0
1 -80 -128 0
1 -80 136 0
1 -133 78 0
1 -133 -142 0
1 -133 80 0
1 133 -62 0
1 133 -67 0
1 -133 143 0
1 133 88 0
1 -133 -135 0
1 -133 77 0
1 133 82 0
1 133 -64 0
1 133 68 0
1 -133 -144 0
1 -133 89 0
1 135 -78 0
1 135 133 0
1 -135 -80 0
1 135 62 0
1 -135 -88 0
1 -135 -145 0
1 -135 77 0
1 135 82 0
1 135 -68 0
1 135 144 0
1 135 89 0
1 -136 80 0
1 136 62 0
1 136 146 0
1 136 67 0
1 136 -134 0
1 136 147 0
1 -136 -138 0
1 136 -82 0
1 -136 64 0
1 -136 68 0
1 136 -148 0
1 134 137 0
1 134 80 0
1 -134 62 0
1 -134 67 0
1 134 -143 0
1 -134 149 0
1 -134 -147 0
1 134 138 0
1 134 82 0
1 134 64 0
1 -134 -68 0
1 134 -144 0
1 134 -136 0
1 -134 -148 0
1 77 -78 0
1 77 -133 0
1 -77 -66 0
1 77 -63 0
1 -77 55 0
1 77 56 0
1 77 72 0
1 -77 135 0
1 77 -34 0
1 77 65 0
1 77 -58 0
1 -77 59 0
1 -77 -75 0
1 -78 133 0
1 -78 -137 0
1 -78 -66 0
1 -78 55 0
1 78 -56 0
1 -78 72 0
1 -78 -135 0
1 -78 -77 0
1 78 71 0
1 78 65 0
1 78 58 0
1 -78 59 0
1 78 -36 0
1 -88 -133 0
1 88 -66 0
1 -88 -63 0
1 88 76 0
1 88 72 0
1 -88 46 0
1 88 -135 0
1 -88 -147 0
1 -88 -71 0
1 88 65 0
1 88 83 0
1 -88 75 0
1 88 89 0
1 -89 133 0
1 -89 66 0
1 89 63 0
1 -89 -81 0
1 -89 72 0
1 -89 135 0
1 -89 71 0
1 -89 -65 0
1 -89 -83 0
1 -89 -79 0
1 89 47 0
1 -89 148 0
1 63 -78 0
1 -63 -80 0
1 63 -150 0
1 -63 -151 0
1 -63 99 0
1 63 85 0
1 63 -88 0
1 -63 -77 0
1 -63 -82 0
1 63 65 0
1 63 -152 0
1 63 -101 0
1 -63 87 0
1 -63 -89 0
1 65 78 0
1 -65 80 0
1 65 151 0
1 -65 -99 0
1 -65 -88 0
1 65 -77 0
1 65 -51 0
1 65 -152 0
1 65 101 0
1 -65 87 0
1 -65 -89 0
1 -66 -78 0
1 66 -80 0
1 66 -151 0
1 -66 153 0
1 66 143 0
1 -66 88 0
1 66 77 0
1 -66 -71 0
1 -66 82 0
1 66 152 0
1 66 144 0
1 71 151 0
1 -71 153 0
1 -71 -88 0
1 71 77 0
1 71 53 0
1 -71 154 0
1 -71 -82 0
1 71 152 0
1 -71 155 0
1 -71 144 0
1 -71 -89 0
1 -85 -63 0
1 85 81 0
1 85 76 0
1 -85 -72 0
1 -85 -42 0
1 85 -73 0
1 -85 143 0
1 85 -25 0
1 -85 83 0
1 -85 79 0
1 -85 74 0
1 -85 87 0
1 85 84 0
1 -87 63 0
1 87 76 0
1 87 -72 0
1 -87 74 0
1 87 -73 0
1 87 25 0
1 87 -83 0
1 87 -79 0
1 -87 75 0
1 -87 44 0
1 -87 144 0
1 -87 -84 0
1 99 -63 0
1 -99 -90 0
1 -99 -81 0
1 99 76 0
1 -99 -94 0
1 99 -156 0
1 99 -153 0
1 99 -86 0
1 99 -25 0
1 99 -65 0
1 99 -83 0
1 -99 -79 0
1 99 101 0
1 -99 157 0
1 101 -81 0
1 101 -76 0
1 101 -99 0
1 -101 156 0
1 101 -86 0
1 -101 25 0
1 101 65 0
1 -101 83 0
1 -101 79 0
1 -101 -90 0
1 101 157 0
1 101 -84 0
1 76 -158 0
1 -76 -110 0
1 -76 56 0
1 -76 93 0
1 -76 -159 0
1 -76 99 0
1 76 85 0
1 76 88 0
1 76 -160 0
1 76 -112 0
1 -76 98 0
1 -76 -101 0
1 76 87 0
1 76 89 0
1 79 -158 0
1 79 -110 0
1 -79 -76 0
1 79 -85 0
1 -79 -88 0
1 -79 160 0
1 -79 112 0
1 -79 -98 0
1 -79 -161 0
1 -79 101 0
1 -79 87 0
1 79 -89 0
1 81 -158 0
1 -81 -55 0
1 -81 162 0
1 -81 -163 0
1 -81 -151 0
1 -81 -99 0
1 -81 85 0
1 81 160 0
1 -81 164 0
1 -81 -152 0
1 -81 101 0
1 81 87 0
1 -83 -81 0
1 -83 -162 0
1 83 85 0
1 83 -88 0
1 83 58 0
1 83 164 0
1 83 -152 0
1 -83 -101 0
1 -83 -89 0
1 -93 -91 0
1 -93 -79 0
1 -93 -105 0
1 93 151 0
1 93 -156 0
1 -93 25 0
1 93 17 0
1 -93 -40 0
1 93 98 0
1 93 -90 0
1 93 -157 0
1 -98 -20 0
1 98 -91 0
1 -98 93 0
1 -98 76 0
1 98 156 0
1 98 -86 0
1 -98 25 0
1 -98 40 0
1 98 108 0
1 98 79 0
1 -98 -90 0
1 98 -157 0
1 -98 84 0
1 110 91 0
1 110 114 0
1 -110 76 0
1 -110 -156 0
1 -110 -100 0
1 -110 -95 0
1 110 40 0
1 -110 -79 0
1 -110 -90 0
1 110 -157 0
1 110 102 0
1 -112 -97 0
1 112 91 0
1 112 -110 0
1 112 76 0
1 -112 156 0
1 -112 86 0
1 -112 -95 0
1 112 107 0
1 -112 164 0
1 112 79 0
1 -112 90 0
1 -112 157 0
1 112 -102 0
1 -86 -165 0
1 86 119 0
1 -86 -104 0
1 -86 -110 0
1 -86 93 0
1 -86 99 0
1 -86 -73 0
1 -86 -117 0
1 -86 106 0
1 86 -112 0
1 86 98 0
1 -157 165 0
1 -157 119 0
1 -157 -104 0
1 157 86 0
1 157 -166 0
1 157 117 0
1 157 106 0
1 -157 -112 0
1 -157 -74 0
1 -157 167 0
1 -156 -165 0
1 156 -168 0
1 156 158 0
1 -156 -90 0
1 156 72 0
1 -156 169 0
1 -156 166 0
1 -156 -170 0
1 156 -112 0
1 -156 98 0
1 -156 101 0
1 -90 -165 0
1 90 -158 0
1 90 -110 0
1 -90 -93 0
1 90 -99 0
1 -90 -156 0
1 -90 166 0
1 90 170 0
1 90 -160 0
1 -90 -112 0
1 90 98 0
1 -90 75 0
1 -90 -101 0
1 90 -171 0
1 -104 97 0
1 -104 91 0
1 -104 37 0
1 104 158 0
1 -104 -100 0
1 104 -106 0
1 -104 -40 0
1 -104 92 0
1 104 157 0
1 104 102 0
1 -106 97 0
1 -106 104 0
1 106 48 0
1 -106 -86 0
1 -106 -100 0
1 -106 95 0
1 -106 -40 0
1 106 160 0
1 106 92 0
1 -106 103 0
1 -106 102 0
1 119 -109 0
1 119 -86 0
1 119 100 0
1 119 117 0
1 119 95 0
1 -119 -111 0
1 119 -172 0
1 119 102 0
1 -117 97 0
1 117 -119 0
1 117 113 0
1 117 109 0
1 117 48 0
1 -117 100 0
1 117 -95 0
1 117 -172 0
1 -117 103 0
1 -117 -157 0
1 95 115 0
1 95 97 0
1 95 119 0
1 -95 104 0
1 95 110 0
1 95 173 0
1 -95 -174 0
1 95 -116 0
1 95 106 0
1 -95 112 0
1 95 -175 0
1 95 176 0
1 -97 -119 0
1 -97 -104 0
1 -97 110 0
1 97 -174 0
1 -97 116 0
1 97 -117 0
1 -97 -106 0
1 97 -112 0
1 -97 175 0
1 -97 176 0
1 -100 -119 0
1 -100 -104 0
1 100 110 0
1 100 -173 0
1 100 -177 0
1 -100 25 0
1 100 -166 0
1 100 106 0
1 100 112 0
1 -100 -175 0
1 100 -178 0
1 102 165 0
1 -102 -119 0
1 -102 104 0
1 -102 110 0
1 102 177 0
1 -102 -166 0
1 102 100 0
1 102 -106 0
1 102 -112 0
1 -102 175 0
1 102 -84 0
1 115 -165 0
1 -115 97 0
1 115 113 0
1 115 -109 0
1 115 48 0
1 115 -45 0
1 115 -116 0
1 -115 -111 0
1 115 -103 0
1 -116 -97 0
1 116 -113 0
1 -116 109 0
1 -116 48 0
1 -116 -166 0
1 -116 95 0
1 116 -111 0
1 116 -172 0
1 -116 103 0
1 176 97 0
1 176 -113 0
1 176 109 0
1 -176 120 0
1 -176 -179 0
1 -176 -174 0
1 -176 -95 0
1 176 -111 0
1 176 172 0
1 -176 118 0
1 176 180 0
1 -176 178 0
1 -174 -113 0
1 -174 109 0
1 174 -120 0
1 174 179 0
1 174 177 0
1 -174 172 0
1 -174 118 0
1 -174 -180 0
1 174 176 0
1 172 115 0
1 172 181 0
1 172 -174 0
1 172 -116 0
1 172 -117 0
1 172 182 0
1 172 183 0
1 -172 -176 0
1 109 115 0
1 -109 119 0
1 109 -37 0
1 -109 181 0
1 109 -116 0
1 109 117 0
1 -109 172 0
1 -109 182 0
1 109 176 0
1 111 -115 0
1 -111 119 0
1 -111 113 0
1 -111 184 0
1 111 173 0
1 111 174 0
1 -111 116 0
1 111 117 0
1 111 -40 0
1 -111 -185 0
1 -111 -175 0
1 111 -176 0
1 113 115 0
1 113 -119 0
1 -113 -184 0
1 -113 -173 0
1 113 174 0
1 113 116 0
1 -113 -117 0
1 113 -111 0
1 -113 -185 0
1 113 175 0
1 113 -176 0
1 -183 109 0
1 183 120 0
1 183 -179 0
1 -183 181 0
1 183 172 0
1 183 175 0
1 -181 109 0
1 -181 120 0
1 181 -179 0
1 181 -173 0
1 181 172 0
1 181 118 0
1 181 -180 0
1 -181 183 0
1 182 120 0
1 182 -186 0
1 182 179 0
1 182 180 0
1 182 185 0
1 186 -180 0
1 -186 -120 0
1 186 172 0
1 -186 -118 0
1 186 -182 0
1 -180 -186 0
1 -180 181 0
1 180 -174 0
1 -180 -43 0
1 -180 -182 0
1 -180 -183 0
1 -180 -176 0
1 -179 180 0
1 -179 -45 0
1 -179 -186 0
1 179 -181 0
1 -179 -174 0
1 179 182 0
1 179 -183 0
1 179 -176 0
1 118 -120 0
1 118 186 0
1 -118 181 0
1 118 174 0
1 -118 -103 0
1 -118 -182 0
1 -118 183 0
1 118 -176 0
1 -120 -186 0
1 -120 -174 0
1 -120 118 0
1 -120 182 0
1 -120 183 0
1 -120 -176 0
1 138 137 0
1 -138 -187 0
1 -138 131 0
1 -138 129 0
1 -138 134 0
1 138 -132 0
1 -138 -130 0
1 -138 -127 0
1 -138 128 0
1 -138 136 0
1 -137 -78 0
1 -137 -187 0
1 -137 131 0
1 -137 126 0
1 -137 -134 0
1 -137 -138 0
1 137 -127 0
1 -137 128 0
1 137 -136 0
1 -147 -187 0
1 -147 131 0
1 -147 141 0
1 147 139 0
1 147 -134 0
1 -147 88 0
1 147 -132 0
1 147 -130 0
1 -147 -140 0
1 -147 188 0
1 147 136 0
1 -147 -148 0
1 -148 187 0
1 -148 131 0
1 148 -141 0
1 -148 -139 0
1 148 -134 0
1 148 132 0
1 148 -140 0
1 148 188 0
1 -148 -136 0
1 -148 -89 0
1 -130 137 0
1 130 131 0
1 -130 143 0
1 -130 189 0
1 130 -147 0
1 -130 138 0
1 -130 -125 0
1 -130 -155 0
1 -130 144 0
1 -130 -148 0
1 -131 -137 0
1 131 -123 0
1 131 -190 0
1 131 -153 0
1 -131 143 0
1 131 -147 0
1 131 138 0
1 -131 130 0
1 131 155 0
1 131 144 0
1 131 -148 0
1 132 137 0
1 132 187 0
1 132 147 0
1 -132 -124 0
1 132 -191 0
1 187 137 0
1 -187 -192 0
1 187 -138 0
1 -187 132 0
1 143 -66 0
1 -143 131 0
1 -143 -141 0
1 -143 -139 0
1 143 85 0
1 143 -134 0
1 143 130 0
1 -143 -140 0
1 143 144 0
1 -143 136 0
1 -144 133 0
1 144 -136 0
1 144 131 0
1 144 -141 0
1 144 139 0
1 144 134 0
1 144 -143 0
1 144 135 0
1 -144 -71 0
1 -144 -130 0
1 -144 140 0
1 -144 -87 0
1 -144 188 0
1 -153 -142 0
1 153 -66 0
1 -153 131 0
1 -153 -141 0
1 153 99 0
1 153 139 0
1 153 145 0
1 153 71 0
1 153 140 0
1 153 -130 0
1 -153 155 0
1 -153 -188 0
1 -155 -142 0
1 155 -141 0
1 -155 -153 0
1 -155 139 0
1 155 145 0
1 155 -71 0
1 155 130 0
1 -155 140 0
1 155 146 0
1 -188 -193 0
1 -188 -162 0
1 188 151 0
1 188 -139 0
1 188 143 0
1 -188 194 0
1 -188 164 0
1 -188 152 0
1 -188 128 0
1 188 195 0
1 188 -148 0
1 139 193 0
1 -139 -162 0
1 139 151 0
1 139 153 0
1 -139 -196 0
1 -139 143 0
1 139 147 0
1 -139 194 0
1 -139 152 0
1 -139 -155 0
1 139 -144 0
1 139 148 0
1 -140 193 0
1 140 -141 0
1 140 153 0
1 140 143 0
1 -140 147 0
1 -140 -194 0
1 140 -155 0
1 140 -197 0
1 -140 148 0
1 141 -193 0
1 -141 129 0
1 141 -198 0
1 141 -143 0
1 -141 -147 0
1 141 140 0
1 141 -155 0
1 -141 144 0
1 -141 148 0
1 151 142 0
1 151 -63 0
1 -151 -81 0
1 -151 93 0
1 151 -149 0
1 -151 -145 0
1 -151 71 0
1 151 -65 0
1 151 -152 0
1 151 146 0
1 152 142 0
1 152 81 0
1 152 -151 0
1 -152 -139 0
1 152 149 0
1 152 -71 0
1 152 -65 0
1 152 -83 0
1 -152 -98 0
1 152 -188 0
1 152 -146 0
1 -162 142 0
1 -162 199 0
1 162 -81 0
1 162 110 0
1 162 139 0
1 -162 -149 0
1 162 -145 0
1 -162 -154 0
1 -162 -200 0
1 162 83 0
1 -162 164 0
1 -162 188 0
1 -162 146 0
1 164 -142 0
1 -164 -199 0
1 164 -81 0
1 164 -162 0
1 164 139 0
1 -164 149 0
1 164 145 0
1 -164 112 0
1 164 188 0
1 142 133 0
1 142 168 0
1 142 -201 0
1 142 158 0
1 142 -162 0
1 -142 151 0
1 142 -153 0
1 -142 -202 0
1 -142 160 0
1 142 164 0
1 -142 155 0
1 -145 142 0
1 -145 -168 0
1 -145 -158 0
1 145 162 0
1 -145 153 0
1 -145 -135 0
1 -145 -202 0
1 145 170 0
1 145 -203 0
1 145 152 0
1 -146 204 0
1 -146 -205 0
1 -146 -206 0
1 -146 -193 0
1 146 -162 0
1 146 -151 0
1 146 -153 0
1 146 149 0
1 -146 202 0
1 -146 -207 0
1 -146 -164 0
1 146 -152 0
1 146 155 0
1 149 206 0
1 149 193 0
1 -149 -162 0
1 149 134 0
1 -149 -208 0
1 -149 202 0
1 -149 -207 0
1 -149 -194 0
1 -149 -164 0
1 -149 152 0
1 -149 -155 0
1 -149 -146 0
1 158 -104 0
1 -158 199 0
1 158 193 0
1 158 81 0
1 158 150 0
1 -158 76 0
1 -158 156 0
1 -158 -145 0
1 -158 154 0
1 -158 -200 0
1 -158 79 0
1 -158 90 0
1 -160 142 0
1 160 -158 0
1 -160 -150 0
1 -160 -81 0
1 160 -76 0
1 160 -145 0
1 -160 -106 0
1 -160 -154 0
1 -160 194 0
1 160 -83 0
1 160 200 0
1 -160 -79 0
1 160 -90 0
1 168 -142 0
1 168 -119 0
1 -168 206 0
1 168 -199 0
1 -168 -163 0
1 -168 -159 0
1 -168 156 0
1 168 145 0
1 168 -170 0
1 168 -200 0
1 168 -209 0
1 168 161 0
1 168 -90 0
1 -170 -142 0
1 -170 -168 0
1 -170 199 0
1 -170 -150 0
1 170 -159 0
1 -170 -145 0
1 -170 117 0
1 -170 207 0
1 170 154 0
1 170 -200 0
1 170 209 0
1 -170 161 0
1 170 90 0
1 -150 -165 0
1 150 -168 0
1 150 158 0
1 -150 63 0
1 150 162 0
1 150 -210 0
1 -150 -177 0
1 -150 166 0
1 150 -170 0
1 150 -160 0
1 150 -200 0
1 150 164 0
1 200 -165 0
1 -200 -168 0
1 -200 150 0
1 -200 -162 0
1 -200 -177 0
1 200 166 0
1 -200 170 0
1 -200 -160 0
1 -200 -65 0
1 -200 164 0
1 -200 -178 0
1 199 -211 0
1 199 205 0
1 199 168 0
1 199 -66 0
1 199 158 0
1 199 -162 0
1 -199 210 0
1 -199 -212 0
1 199 -202 0
1 199 170 0
1 -199 154 0
1 199 -160 0
1 -199 164 0
1 154 211 0
1 -154 205 0
1 -154 199 0
1 154 -158 0
1 -154 -162 0
1 154 -212 0
1 -154 202 0
1 -154 170 0
1 -154 -71 0
1 154 160 0
1 -154 164 0
1 -165 115 0
1 -165 -205 0
1 165 150 0
1 -165 -163 0
1 -165 -159 0
1 165 156 0
1 -165 86 0
1 165 -166 0
1 -165 -100 0
1 -165 200 0
1 -165 -161 0
1 -165 90 0
1 165 -157 0
1 -165 -102 0
1 -166 -165 0
1 -166 -150 0
1 -166 163 0
1 -166 -159 0
1 -166 -116 0
1 166 100 0
1 166 -202 0
1 166 200 0
1 -166 -209 0
1 166 -161 0
1 -166 90 0
1 -166 -102 0
1 178 150 0
1 -178 163 0
1 -178 -169 0
1 178 177 0
1 -178 -100 0
1 178 200 0
1 -178 161 0
1 178 171 0
1 -177 150 0
1 177 163 0
1 177 -159 0
1 -177 -178 0
1 177 -169 0
1 177 -213 0
1 -177 -100 0
1 -177 200 0
1 177 209 0
1 177 -161 0
1 177 -167 0
1 159 -165 0
1 159 -168 0
1 -159 76 0
1 -159 184 0
1 159 173 0
1 159 166 0
1 159 170 0
1 -159 185 0
1 -159 175 0
1 159 178 0
1 161 165 0
1 -161 -168 0
1 161 -159 0
1 161 -173 0
1 -161 166 0
1 -161 -170 0
1 -161 -79 0
1 161 -185 0
1 161 -175 0
1 161 -178 0
1 163 -165 0
1 163 168 0
1 163 -81 0
1 163 214 0
1 163 -210 0
1 -163 -177 0
1 163 166 0
1 -163 170 0
1 163 178 0
1 -209 165 0
1 -209 -168 0
1 209 -163 0
1 -209 -214 0
1 209 210 0
1 -209 166 0
1 -209 170 0
1 -209 83 0
1 -209 -215 0
1 -175 113 0
1 -175 159 0
1 -175 173 0
1 175 169 0
1 175 213 0
1 175 -100 0
1 -175 95 0
1 175 -111 0
1 175 161 0
1 175 171 0
1 175 -183 0
1 175 -167 0
1 175 -102 0
1 173 -97 0
1 -173 -159 0
1 173 181 0
1 -173 -210 0
1 173 -213 0
1 -173 -111 0
1 173 167 0
1 -173 -161 0
1 -173 171 0
1 -173 175 0
1 -173 -102 0
1 -185 -113 0
1 -185 -184 0
1 185 159 0
1 185 -169 0
1 185 -213 0
1 -185 -182 0
1 -185 171 0
1 185 -215 0
1 -185 167 0
1 -184 -186 0
1 -184 -159 0
1 184 214 0
1 -184 -169 0
1 184 171 0
1 -184 213 0
1 -184 -111 0
1 -184 -161 0
1 -184 -185 0
1 -184 167 0
1 213 -184 0
1 -213 -173 0
1 -213 -86 0
1 -213 177 0
1 -213 -167 0
1 213 -175 0
1 213 -178 0
1 -167 184 0
1 -167 177 0
1 -167 -185 0
1 -167 157 0
1 -167 -178 0
1 169 184 0
1 169 -156 0
1 169 173 0
1 169 -177 0
1 -169 -171 0
1 169 -185 0
1 169 175 0
1 -169 178 0
1 -171 184 0
1 -171 -173 0
1 171 169 0
1 -171 177 0
1 171 -90 0
1 171 185 0
1 -193 -158 0
1 -193 -192 0
1 -193 -190 0
1 193 -139 0
1 -193 149 0
1 193 194 0
1 -193 -189 0
1 193 -188 0
1 -193 146 0
1 194 -193 0
1 -194 192 0
1 -194 190 0
1 -194 141 0
1 -194 139 0
1 -194 149 0
1 194 160 0
1 -194 191 0
1 194 189 0
1 194 -188 0
1 194 -146 0
1 -206 168 0
1 206 -190 0
1 206 198 0
1 206 -196 0
1 -206 149 0
1 206 -207 0
1 206 -191 0
1 -206 -189 0
1 206 197 0
1 -206 195 0
1 206 -146 0
1 207 -192 0
1 -207 -190 0
1 207 -198 0
1 -207 149 0
1 -207 170 0
1 207 -189 0
1 207 197 0
1 -207 195 0
1 -207 146 0
1 189 211 0
1 -189 -206 0
1 -189 -193 0
1 189 -190 0
1 189 -202 0
1 -189 207 0
1 -189 194 0
1 -189 -130 0
1 -190 -211 0
1 190 205 0
1 -190 206 0
1 190 193 0
1 190 -131 0
1 190 212 0
1 190 202 0
1 -190 -207 0
1 -190 194 0
1 -190 -189 0
1 191 -206 0
1 191 -193 0
1 -191 -194 0
1 191 132 0
1 -192 206 0
1 192 -193 0
1 -192 -191 0
1 -192 -207 0
1 -192 194 0
1 -205 -165 0
1 -205 199 0
1 205 190 0
1 205 -198 0
1 205 -196 0
1 205 -145 0
1 -205 -202 0
1 -205 154 0
1 205 -189 0
1 -205 197 0
1 205 -195 0
1 205 146 0
1 -202 142 0
1 202 205 0
1 202 -199 0
1 202 -190 0
1 -202 -198 0
1 -202 -196 0
1 -202 166 0
1 202 -145 0
1 -202 -195 0
1 -202 146 0
1 211 204 0
1 211 -201 0
1 211 -199 0
1 211 190 0
1 211 -198 0
1 -211 196 0
1 211 -212 0
1 211 -203 0
1 -211 154 0
1 211 -189 0
1 -211 197 0
1 211 195 0
1 -211 -178 0
1 212 211 0
1 -212 204 0
1 212 201 0
1 -212 199 0
1 -212 190 0
1 -212 198 0
1 -212 196 0
1 -212 177 0
1 -212 -203 0
1 -212 154 0
1 212 197 0
1 -212 195 0
1 195 205 0
1 195 -210 0
1 195 196 0
1 195 -202 0
1 195 207 0
1 195 215 0
1 -196 -205 0
1 -196 206 0
1 196 214 0
1 -196 139 0
1 196 210 0
1 196 212 0
1 -196 -202 0
1 -196 215 0
1 196 -195 0
1 -197 211 0
1 197 205 0
1 -197 206 0
1 -197 198 0
1 197 202 0
1 197 -140 0
1 198 211 0
1 -198 -205 0
1 198 -202 0
1 198 197 0
1 210 -204 0
1 210 199 0
1 210 -150 0
1 -210 -163 0
1 210 173 0
1 210 -196 0
1 -210 -203 0
1 -210 -154 0
1 -210 200 0
1 -210 195 0
1 215 -204 0
1 215 -201 0
1 215 -214 0
1 215 -196 0
1 215 203 0
1 -215 209 0
1 215 185 0
1 -215 -195 0
1 -214 204 0
1 214 -163 0
1 -214 184 0
1 214 196 0
1 214 -208 0
1 214 209 0
1 -214 215 0
1 -214 195 0
1 201 211 0
1 -201 -142 0
1 201 214 0
1 -201 -210 0
1 -201 212 0
1 -203 -211 0
1 203 201 0
1 203 214 0
1 -203 212 0
1 -203 145 0
1 -203 215 0
1 204 -211 0
1 204 -214 0
1 -204 -210 0
1 -204 -212 0
1 204 -215 0
1 -204 146 0
1 208 -211 0
1 208 -204 0
1 208 -214 0
1 -208 -210 0
1 208 -149 0
1 208 212 0
1 208 215 0
